NAME: tsp_472
COMMENT: Random TSP instance
TYPE: TSP
DIMENSION: 50
EDGE_WEIGHT_TYPE: EUC_2D
NODE_COORD_SECTION
1 908 670
2 57 525
3 962 957
4 870 202
5 212 687
6 641 355
7 513 124
8 752 843
9 502 60
10 855 833
11 557 976
12 41 846
13 215 821
14 781 559
15 11 813
16 186 875
17 431 859
18 793 767
19 254 445
20 395 511
21 617 803
22 71 646
23 20 372
24 344 428
25 732 960
26 413 173
27 885 86
28 729 942
29 417 494
30 99 255
31 158 360
32 69 691
33 979 62
34 116 729
35 622 511
36 155 721
37 884 554
38 200 792
39 54 172
40 922 233
41 869 687
42 52 804
43 885 560
44 102 765
45 162 564
46 537 90
47 425 219
48 442 771
49 514 443
50 640 498
